Set parameter Username
Academic license - for non-commercial use only - expires 2024-02-22
Warning: Gurobi version mismatch between Python 9.5.0 and C library 9.5.2
Set parameter TimeLimit to value 3600
Set parameter MIPGap to value 1e-06
Set parameter Threads to value 1
Gurobi Optimizer version 9.5.2 build v9.5.2rc0 (linux64)
Thread count: 4 physical cores, 4 logical processors, using up to 1 threads
Optimize a model with 260 rows, 312 columns and 674 nonzeros
Model fingerprint: 0x8bd25d26
Variable types: 208 continuous, 104 integer (104 binary)
Coefficient statistics:
  Matrix range     [1e+00, 1e+02]
  Objective range  [2e-01, 2e+03]
  Bounds range     [1e+00, 1e+00]
  RHS range        [2e+01, 2e+02]
Found heuristic solution: objective 69944.200000
Presolve removed 5 rows and 5 columns
Presolve time: 0.00s
Presolved: 255 rows, 307 columns, 663 nonzeros
Variable types: 204 continuous, 103 integer (103 binary)

Root relaxation: objective 3.113966e+04, 207 iterations, 0.00 seconds (0.00 work units)

    Nodes    |    Current Node    |     Objective Bounds      |     Work
 Expl Unexpl |  Obj  Depth IntInf | Incumbent    BestBd   Gap | It/Node Time

     0     0 31139.6621    0   49 69944.2000 31139.6621  55.5%     -    0s
H    0     0                    39063.800000 31139.6621  20.3%     -    0s
H    0     0                    37744.800000 31139.6621  17.5%     -    0s
     0     0 32675.0413    0   45 37744.8000 32675.0413  13.4%     -    0s
H    0     0                    37034.800000 32675.0413  11.8%     -    0s
H    0     0                    37031.800000 32675.0413  11.8%     -    0s
     0     0 32764.0876    0   43 37031.8000 32764.0876  11.5%     -    0s
     0     0 33339.4346    0   31 37031.8000 33339.4346  10.0%     -    0s
H    0     0                    34556.800000 33339.4346  3.52%     -    0s
     0     0 33357.7308    0   35 34556.8000 33357.7308  3.47%     -    0s
     0     0 33372.4595    0   35 34556.8000 33372.4595  3.43%     -    0s
     0     0 33450.5435    0   36 34556.8000 33450.5435  3.20%     -    0s
H    0     0                    34266.800000 33450.5435  2.38%     -    0s
     0     0 33501.3080    0   36 34266.8000 33501.3080  2.23%     -    0s
     0     0 33521.8001    0   37 34266.8000 33521.8001  2.17%     -    0s
     0     0 33527.4030    0   41 34266.8000 33527.4030  2.16%     -    0s
     0     0 33528.9012    0   41 34266.8000 33528.9012  2.15%     -    0s
     0     0 33609.2429    0   41 34266.8000 33609.2429  1.92%     -    0s
     0     0 33613.6673    0   41 34266.8000 33613.6673  1.91%     -    0s
     0     0 33614.5938    0   41 34266.8000 33614.5938  1.90%     -    0s
     0     0 33626.8997    0   43 34266.8000 33626.8997  1.87%     -    0s
     0     0 33638.0541    0   41 34266.8000 33638.0541  1.83%     -    0s
     0     0 33640.5950    0   43 34266.8000 33640.5950  1.83%     -    0s
     0     0 33640.7763    0   43 34266.8000 33640.7763  1.83%     -    0s
     0     0 33653.7202    0   36 34266.8000 33653.7202  1.79%     -    0s
     0     0 33666.7943    0   37 34266.8000 33666.7943  1.75%     -    0s
     0     0 33676.0559    0   46 34266.8000 33676.0559  1.72%     -    0s
     0     0 33677.1388    0   43 34266.8000 33677.1388  1.72%     -    0s
     0     0 33683.2291    0   43 34266.8000 33683.2291  1.70%     -    0s
     0     0 33685.9350    0   46 34266.8000 33685.9350  1.70%     -    0s
     0     0 33686.6465    0   50 34266.8000 33686.6465  1.69%     -    0s
     0     0 33694.9515    0   47 34266.8000 33694.9515  1.67%     -    0s
     0     0 33694.9515    0   47 34266.8000 33694.9515  1.67%     -    0s
H    0     0                    34133.800000 33694.9515  1.29%     -    0s
     0     0 33694.9515    0   49 34133.8000 33694.9515  1.29%     -    0s
     0     0 33694.9515    0   30 34133.8000 33694.9515  1.29%     -    0s
     0     0 33694.9515    0   32 34133.8000 33694.9515  1.29%     -    0s
     0     0 33694.9515    0   41 34133.8000 33694.9515  1.29%     -    0s
     0     0 33694.9515    0   44 34133.8000 33694.9515  1.29%     -    0s
     0     0 33694.9515    0   46 34133.8000 33694.9515  1.29%     -    0s
     0     0 33694.9515    0   47 34133.8000 33694.9515  1.29%     -    0s
     0     0 33707.8742    0   39 34133.8000 33707.8742  1.25%     -    0s
     0     0 33708.2788    0   42 34133.8000 33708.2788  1.25%     -    0s
     0     0 33715.0176    0   42 34133.8000 33715.0176  1.23%     -    0s
     0     0 33715.0176    0   42 34133.8000 33715.0176  1.23%     -    0s
     0     2 33724.0422    0   42 34133.8000 33724.0422  1.20%     -    0s
*  141    69              16    33988.800000 33760.2429  0.67%   6.7    0s

Cutting planes:
  Gomory: 2
  Cover: 2
  Implied bound: 20
  MIR: 43
  Flow cover: 54

Explored 1140 nodes (10749 simplex iterations) in 0.48 seconds (0.26 work units)
Thread count was 1 (of 4 available processors)

Solution count 9: 33988.8 34133.8 34266.8 ... 69944.2

Optimal solution found (tolerance 1.00e-06)
Best objective 3.398880000000e+04, best bound 3.398880000000e+04, gap 0.0000%
Obj: 33988.8
